(set-info :source |printed by MathSAT|)
(declare-fun call_swimingpool.flby4 () Bool)
(declare-fun x3 () Int)
(declare-fun call_swimingpool.flby8 () Int)
(declare-fun call_swimingpool.flby6 () Bool)
(declare-fun call_swimingpool.ite32 () Int)
(declare-fun call_swimingpool.flby15 () Int)
(declare-fun call_swimingpool.ite2 () Int)
(declare-fun call_swimingpool.flby5 () Bool)
(declare-fun call_First4.First () Int)
(declare-fun call_swimingpool.ite11 () Int)
(declare-fun call_First3.flby () Int)
(declare-fun call_swimingpool.flby12 () Int)
(declare-fun call_First2.flby () Int)
(declare-fun p2 () Int)
(declare-fun call_swimingpool.x6 () Int)
(declare-fun call_swimingpool.ite8 () Int)
(declare-fun call_First2.First () Int)
(declare-fun call_swimingpool.x7 () Int)
(declare-fun call_swimingpool.ite6 () Int)
(declare-fun p1 () Int)
(declare-fun param_e5 () Bool)
(declare-fun call_excludes6.excludes () Bool)
(declare-fun param_e1 () Bool)
(declare-fun call_swimingpool.p2 () Int)
(declare-fun env () Bool)
(declare-fun call_swimingpool.ite13 () Int)
(declare-fun call_swimingpool.flby2 () Bool)
(declare-fun call_swimingpool.ite () Int)
(declare-fun call_swimingpool.ite23 () Int)
(declare-fun x5 () Int)
(declare-fun call_swimingpool.g6 () Bool)
(declare-fun call_First.flby () Int)
(declare-fun call_swimingpool.ite12 () Int)
(declare-fun call_swimingpool.g5 () Bool)
(declare-fun param_e3 () Bool)
(declare-fun call_Sofar.flby () Bool)
(declare-fun call_swimingpool.ite10 () Int)
(declare-fun call_swimingpool.g4 () Bool)
(declare-fun call_swimingpool.flby3 () Bool)
(declare-fun call_swimingpool.ite22 () Int)
(declare-fun call_swimingpool.ite9 () Int)
(declare-fun param_init_p1 () Int)
(declare-fun call_swimingpool.flby13 () Int)
(declare-fun x2 () Int)
(declare-fun call_swimingpool.flby14 () Int)
(declare-fun call_swimingpool.ite24 () Int)
(declare-fun call_swimingpool.ite4 () Int)
(declare-fun call_swimingpool.g3 () Bool)
(declare-fun call_swimingpool.ite30 () Int)
(declare-fun call_swimingpool.ite14 () Int)
(declare-fun call_swimingpool.x1 () Int)
(declare-fun call_Sofar.Sofar () Bool)
(declare-fun param_e6 () Bool)
(declare-fun call_swimingpool.g2 () Bool)
(declare-fun call_swimingpool.ite19 () Int)
(declare-fun call_swimingpool.ite20 () Int)
(declare-fun param_e4 () Bool)
(declare-fun call_swimingpool.ite28 () Int)
(declare-fun x4 () Int)
(declare-fun call_swimingpool.flby9 () Int)
(declare-fun call_swimingpool.flby10 () Int)
(declare-fun param_e2 () Bool)
(declare-fun call_swimingpool.ite5 () Int)
(declare-fun call_swimingpool.ite29 () Int)
(declare-fun call_First4.flby () Int)
(declare-fun call_swimingpool.g1 () Bool)
(declare-fun param_init_p2 () Int)
(declare-fun call_swimingpool.ite17 () Int)
(declare-fun x1 () Int)
(declare-fun call_First3.First () Int)
(declare-fun call_swimingpool.ite26 () Int)
(declare-fun call_swimingpool.flby () Bool)
(declare-fun call_swimingpool.x5 () Int)
(declare-fun _OK_ () Bool)
(declare-fun call_swimingpool.x3 () Int)
(declare-fun x6 () Int)
(declare-fun call_swimingpool.ite7 () Int)
(declare-fun call_swimingpool.flby11 () Int)
(declare-fun x7 () Int)
(declare-fun call_swimingpool.ite18 () Int)
(declare-fun call_swimingpool.ite3 () Int)
(declare-fun call_swimingpool.x2 () Int)
(declare-fun call_swimingpool.flby7 () Int)
(declare-fun call_swimingpool.ite16 () Int)
(declare-fun call_swimingpool.ite15 () Int)
(declare-fun call_swimingpool.ite21 () Int)
(declare-fun call_swimingpool.ite31 () Int)
(declare-fun call_swimingpool.ite25 () Int)
(declare-fun call_swimingpool.ite27 () Int)
(declare-fun call_swimingpool.x4 () Int)
(declare-fun call_First.First () Int)
(declare-fun call_swimingpool.p1 () Int)
(define-fun .def_1137 () Bool (= call_First4.flby call_First4.First))
(define-fun .def_1135 () Bool (= call_First3.flby call_First3.First))
(define-fun .def_1133 () Bool (= call_First2.flby call_First2.First))
(define-fun .def_1131 () Bool (= call_First.flby call_First.First))
(define-fun .def_1129 () Bool (= call_Sofar.flby call_Sofar.Sofar))
(define-fun .def_977 () Bool (not param_e1))
(define-fun .def_829 () Bool (not param_e2))
(define-fun .def_1096 () Bool (and .def_829 .def_977))
(define-fun .def_823 () Bool (not param_e3))
(define-fun .def_1097 () Bool (and .def_823 .def_1096))
(define-fun .def_836 () Bool (not param_e4))
(define-fun .def_1098 () Bool (and .def_836 .def_1097))
(define-fun .def_843 () Bool (not param_e5))
(define-fun .def_1099 () Bool (and .def_843 .def_1098))
(define-fun .def_855 () Bool (not param_e6))
(define-fun .def_1120 () Bool (and .def_855 .def_1099))
(define-fun .def_1115 () Bool (and .def_829 param_e1))
(define-fun .def_1116 () Bool (and .def_823 .def_1115))
(define-fun .def_1117 () Bool (and .def_836 .def_1116))
(define-fun .def_1118 () Bool (and .def_843 .def_1117))
(define-fun .def_1119 () Bool (and .def_855 .def_1118))
(define-fun .def_1121 () Bool (or .def_1119 .def_1120))
(define-fun .def_1110 () Bool (and param_e2 .def_977))
(define-fun .def_1111 () Bool (and .def_823 .def_1110))
(define-fun .def_1112 () Bool (and .def_836 .def_1111))
(define-fun .def_1113 () Bool (and .def_843 .def_1112))
(define-fun .def_1114 () Bool (and .def_855 .def_1113))
(define-fun .def_1122 () Bool (or .def_1114 .def_1121))
(define-fun .def_1106 () Bool (and param_e3 .def_1096))
(define-fun .def_1107 () Bool (and .def_836 .def_1106))
(define-fun .def_1108 () Bool (and .def_843 .def_1107))
(define-fun .def_1109 () Bool (and .def_855 .def_1108))
(define-fun .def_1123 () Bool (or .def_1109 .def_1122))
(define-fun .def_1103 () Bool (and param_e4 .def_1097))
(define-fun .def_1104 () Bool (and .def_843 .def_1103))
(define-fun .def_1105 () Bool (and .def_855 .def_1104))
(define-fun .def_1124 () Bool (or .def_1105 .def_1123))
(define-fun .def_1101 () Bool (and param_e5 .def_1098))
(define-fun .def_1102 () Bool (and .def_855 .def_1101))
(define-fun .def_1125 () Bool (or .def_1102 .def_1124))
(define-fun .def_1100 () Bool (and param_e6 .def_1099))
(define-fun .def_1126 () Bool (or .def_1100 .def_1125))
(define-fun .def_1127 () Bool (= call_excludes6.excludes .def_1126))
(define-fun .def_1094 () Bool (= call_swimingpool.flby6 call_swimingpool.g6))
(define-fun .def_1091 () Bool (= call_swimingpool.flby5 call_swimingpool.g5))
(define-fun .def_1088 () Bool (= call_swimingpool.flby4 call_swimingpool.g4))
(define-fun .def_1085 () Bool (= call_swimingpool.flby3 call_swimingpool.g3))
(define-fun .def_1082 () Bool (= call_swimingpool.flby2 call_swimingpool.g2))
(define-fun .def_1079 () Bool (= call_swimingpool.flby call_swimingpool.g1))
(define-fun .def_1076 () Bool (= call_swimingpool.p2 call_swimingpool.flby15))
(define-fun .def_1074 () Bool (= call_swimingpool.p1 call_swimingpool.flby14))
(define-fun .def_1072 () Bool (= call_swimingpool.flby13 call_swimingpool.x7))
(define-fun .def_1070 () Bool (= call_swimingpool.flby12 call_swimingpool.x6))
(define-fun .def_1068 () Bool (= call_swimingpool.flby11 call_swimingpool.x5))
(define-fun .def_1066 () Bool (= call_swimingpool.flby10 call_swimingpool.x4))
(define-fun .def_1064 () Bool (= call_swimingpool.flby9 call_swimingpool.x3))
(define-fun .def_1062 () Bool (= call_swimingpool.flby8 call_swimingpool.x2))
(define-fun .def_1060 () Bool (= call_swimingpool.flby7 call_swimingpool.x1))
(define-fun .def_1058 () Bool (= x2 call_swimingpool.x2))
(define-fun .def_1054 () Bool (= x1 call_swimingpool.x1))
(define-fun .def_1047 () Bool (<= 1 x4))
(define-fun .def_1048 () Bool (not .def_1047))
(define-fun .def_1046 () Bool (not env))
(define-fun .def_1049 () Bool (or .def_1046 .def_1048))
(define-fun .def_1050 () Bool (= _OK_ .def_1049))
(define-fun .def_1041 () Bool (= call_swimingpool.ite20 call_swimingpool.ite17))
(define-fun .def_1042 () Bool (or .def_843 .def_1041))
(define-fun .def_1038 () Bool (= call_swimingpool.ite19 call_swimingpool.ite20))
(define-fun .def_1039 () Bool (or param_e5 .def_1038))
(define-fun .def_1043 () Bool (and .def_1039 .def_1042))
(define-fun .def_1033 () Bool (= call_swimingpool.ite25 call_swimingpool.ite26))
(define-fun .def_1034 () Bool (or param_e4 .def_1033))
(define-fun .def_1030 () Bool (= call_swimingpool.ite26 call_swimingpool.ite23))
(define-fun .def_1031 () Bool (or .def_836 .def_1030))
(define-fun .def_1026 () Bool (= call_swimingpool.ite16 call_swimingpool.ite13))
(define-fun .def_1027 () Bool (or .def_836 .def_1026))
(define-fun .def_1023 () Bool (= call_swimingpool.ite15 call_swimingpool.ite16))
(define-fun .def_1024 () Bool (or param_e4 .def_1023))
(define-fun .def_1028 () Bool (and .def_1024 .def_1027))
(define-fun .def_1032 () Bool (and .def_1028 .def_1031))
(define-fun .def_1035 () Bool (and .def_1032 .def_1034))
(define-fun .def_1018 () Bool (= call_swimingpool.ite27 call_swimingpool.ite26))
(define-fun .def_1019 () Bool (or param_e3 .def_1018))
(define-fun .def_1014 () Bool (= call_swimingpool.ite27 call_swimingpool.ite22))
(define-fun .def_1015 () Bool (or .def_823 .def_1014))
(define-fun .def_1010 () Bool (= call_swimingpool.ite12 call_swimingpool.ite9))
(define-fun .def_1011 () Bool (or .def_823 .def_1010))
(define-fun .def_1007 () Bool (= call_swimingpool.ite11 call_swimingpool.ite12))
(define-fun .def_1008 () Bool (or param_e3 .def_1007))
(define-fun .def_1012 () Bool (and .def_1008 .def_1011))
(define-fun .def_1016 () Bool (and .def_1012 .def_1015))
(define-fun .def_1020 () Bool (and .def_1016 .def_1019))
(define-fun .def_1002 () Bool (= call_swimingpool.ite31 call_swimingpool.ite32))
(define-fun .def_1003 () Bool (or param_e2 .def_1002))
(define-fun .def_999 () Bool (= call_swimingpool.ite29 call_swimingpool.ite32))
(define-fun .def_1000 () Bool (or .def_829 .def_999))
(define-fun .def_994 () Bool (= call_swimingpool.ite8 call_swimingpool.ite5))
(define-fun .def_995 () Bool (or .def_829 .def_994))
(define-fun .def_991 () Bool (= call_swimingpool.ite7 call_swimingpool.ite8))
(define-fun .def_992 () Bool (or param_e2 .def_991))
(define-fun .def_996 () Bool (and .def_992 .def_995))
(define-fun .def_1001 () Bool (and .def_996 .def_1000))
(define-fun .def_1004 () Bool (and .def_1001 .def_1003))
(define-fun .def_986 () Bool (= call_swimingpool.ite28 call_swimingpool.ite27))
(define-fun .def_987 () Bool (or param_e1 .def_986))
(define-fun .def_982 () Bool (= call_swimingpool.ite21 call_swimingpool.ite28))
(define-fun .def_983 () Bool (or .def_977 .def_982))
(define-fun .def_976 () Bool (= call_swimingpool.ite4 call_swimingpool.ite))
(define-fun .def_978 () Bool (or .def_976 .def_977))
(define-fun .def_972 () Bool (= call_swimingpool.ite3 call_swimingpool.ite4))
(define-fun .def_974 () Bool (or .def_972 param_e1))
(define-fun .def_979 () Bool (and .def_974 .def_978))
(define-fun .def_984 () Bool (and .def_979 .def_983))
(define-fun .def_988 () Bool (and .def_984 .def_987))
(define-fun .def_965 () Bool (<= 1000 call_First4.First))
(define-fun .def_966 () Bool (not .def_965))
(define-fun .def_961 () Bool (<= 1000 call_First3.First))
(define-fun .def_962 () Bool (not .def_961))
(define-fun .def_958 () Bool (<= 0 call_First2.First))
(define-fun .def_954 () Bool (<= 0 call_First.First))
(define-fun .def_956 () Bool (and .def_954 call_Sofar.Sofar))
(define-fun .def_959 () Bool (and .def_956 .def_958))
(define-fun .def_963 () Bool (and .def_959 .def_962))
(define-fun .def_967 () Bool (and .def_963 .def_966))
(define-fun .def_969 () Bool (= .def_967 env))
(define-fun .def_951 () Bool (= call_swimingpool.p2 p2))
(define-fun .def_948 () Bool (= call_swimingpool.p1 p1))
(define-fun .def_945 () Bool (= x7 call_swimingpool.x7))
(define-fun .def_941 () Bool (= x6 call_swimingpool.x6))
(define-fun .def_937 () Bool (= x5 call_swimingpool.x5))
(define-fun .def_933 () Bool (= x4 call_swimingpool.x4))
(define-fun .def_930 () Bool (= x3 call_swimingpool.x3))
(define-fun .def_934 () Bool (and .def_930 .def_933))
(define-fun .def_938 () Bool (and .def_934 .def_937))
(define-fun .def_942 () Bool (and .def_938 .def_941))
(define-fun .def_946 () Bool (and .def_942 .def_945))
(define-fun .def_949 () Bool (and .def_946 .def_948))
(define-fun .def_952 () Bool (and .def_949 .def_951))
(define-fun .def_970 () Bool (and .def_952 .def_969))
(define-fun .def_989 () Bool (and .def_970 .def_988))
(define-fun .def_1005 () Bool (and .def_989 .def_1004))
(define-fun .def_1021 () Bool (and .def_1005 .def_1020))
(define-fun .def_1036 () Bool (and .def_1021 .def_1035))
(define-fun .def_1044 () Bool (and .def_1036 .def_1043))
(define-fun .def_1051 () Bool (and .def_1044 .def_1050))
(define-fun .def_1055 () Bool (and .def_1051 .def_1054))
(define-fun .def_1059 () Bool (and .def_1055 .def_1058))
(define-fun .def_1061 () Bool (and .def_1059 .def_1060))
(define-fun .def_1063 () Bool (and .def_1061 .def_1062))
(define-fun .def_1065 () Bool (and .def_1063 .def_1064))
(define-fun .def_1067 () Bool (and .def_1065 .def_1066))
(define-fun .def_1069 () Bool (and .def_1067 .def_1068))
(define-fun .def_1071 () Bool (and .def_1069 .def_1070))
(define-fun .def_1073 () Bool (and .def_1071 .def_1072))
(define-fun .def_1075 () Bool (and .def_1073 .def_1074))
(define-fun .def_1077 () Bool (and .def_1075 .def_1076))
(define-fun .def_1080 () Bool (and .def_1077 .def_1079))
(define-fun .def_1083 () Bool (and .def_1080 .def_1082))
(define-fun .def_1086 () Bool (and .def_1083 .def_1085))
(define-fun .def_1089 () Bool (and .def_1086 .def_1088))
(define-fun .def_1092 () Bool (and .def_1089 .def_1091))
(define-fun .def_1095 () Bool (and .def_1092 .def_1094))
(define-fun .def_1128 () Bool (and .def_1095 .def_1127))
(define-fun .def_1130 () Bool (and .def_1128 .def_1129))
(define-fun .def_1132 () Bool (and .def_1130 .def_1131))
(define-fun .def_1134 () Bool (and .def_1132 .def_1133))
(define-fun .def_1136 () Bool (and .def_1134 .def_1135))
(define-fun .def_1138 () Bool (and .def_1136 .def_1137))
(define-fun .def_926 () Bool (= param_init_p2 call_First4.flby))
(define-fun .def_923 () Bool (= param_init_p1 call_First3.flby))
(define-fun .def_920 () Bool (= param_init_p2 call_First2.flby))
(define-fun .def_917 () Bool (= param_init_p1 call_First.flby))
(define-fun .def_914 () Bool (= call_excludes6.excludes call_Sofar.flby))
(define-fun .def_910 () Bool (= param_init_p2 call_swimingpool.flby15))
(define-fun .def_906 () Bool (= param_init_p1 call_swimingpool.flby14))
(define-fun .def_902 () Bool (= call_swimingpool.flby13 call_swimingpool.p2))
(define-fun .def_898 () Bool (= call_swimingpool.flby12 call_swimingpool.p1))
(define-fun .def_894 () Bool (= call_swimingpool.flby11 0))
(define-fun .def_891 () Bool (= call_swimingpool.flby10 0))
(define-fun .def_888 () Bool (= call_swimingpool.flby9 0))
(define-fun .def_885 () Bool (= call_swimingpool.flby8 0))
(define-fun .def_882 () Bool (= call_swimingpool.flby7 0))
(define-fun .def_879 () Bool (not call_swimingpool.flby6))
(define-fun .def_876 () Bool (not call_swimingpool.flby5))
(define-fun .def_873 () Bool (not call_swimingpool.flby4))
(define-fun .def_870 () Bool (not call_swimingpool.flby3))
(define-fun .def_867 () Bool (not call_swimingpool.flby2))
(define-fun .def_864 () Bool (not call_swimingpool.flby))
(define-fun .def_859 () Bool (= call_swimingpool.ite18 call_swimingpool.ite19))
(define-fun .def_860 () Bool (or .def_855 .def_859))
(define-fun .def_853 () Bool (= call_swimingpool.ite24 call_swimingpool.ite25))
(define-fun .def_856 () Bool (or .def_853 .def_855))
(define-fun .def_861 () Bool (and .def_856 .def_860))
(define-fun .def_847 () Bool (= call_swimingpool.ite14 call_swimingpool.ite15))
(define-fun .def_848 () Bool (or .def_843 .def_847))
(define-fun .def_841 () Bool (= call_swimingpool.ite30 call_swimingpool.ite31))
(define-fun .def_844 () Bool (or .def_841 .def_843))
(define-fun .def_849 () Bool (and .def_844 .def_848))
(define-fun .def_834 () Bool (= call_swimingpool.ite10 call_swimingpool.ite11))
(define-fun .def_837 () Bool (or .def_834 .def_836))
(define-fun .def_827 () Bool (= call_swimingpool.ite2 call_swimingpool.ite3))
(define-fun .def_830 () Bool (or .def_827 .def_829))
(define-fun .def_821 () Bool (= call_swimingpool.ite6 call_swimingpool.ite7))
(define-fun .def_824 () Bool (or .def_821 .def_823))
(define-fun .def_831 () Bool (and .def_824 .def_830))
(define-fun .def_838 () Bool (and .def_831 .def_837))
(define-fun .def_850 () Bool (and .def_838 .def_849))
(define-fun .def_862 () Bool (and .def_850 .def_861))
(define-fun .def_865 () Bool (and .def_862 .def_864))
(define-fun .def_868 () Bool (and .def_865 .def_867))
(define-fun .def_871 () Bool (and .def_868 .def_870))
(define-fun .def_874 () Bool (and .def_871 .def_873))
(define-fun .def_877 () Bool (and .def_874 .def_876))
(define-fun .def_880 () Bool (and .def_877 .def_879))
(define-fun .def_883 () Bool (and .def_880 .def_882))
(define-fun .def_886 () Bool (and .def_883 .def_885))
(define-fun .def_889 () Bool (and .def_886 .def_888))
(define-fun .def_892 () Bool (and .def_889 .def_891))
(define-fun .def_895 () Bool (and .def_892 .def_894))
(define-fun .def_899 () Bool (and .def_895 .def_898))
(define-fun .def_903 () Bool (and .def_899 .def_902))
(define-fun .def_907 () Bool (and .def_903 .def_906))
(define-fun .def_911 () Bool (and .def_907 .def_910))
(define-fun .def_915 () Bool (and .def_911 .def_914))
(define-fun .def_918 () Bool (and .def_915 .def_917))
(define-fun .def_921 () Bool (and .def_918 .def_920))
(define-fun .def_924 () Bool (and .def_921 .def_923))
(define-fun .def_927 () Bool (and .def_924 .def_926))
(define-fun .def_1139 () Bool (and .def_927 .def_1138))
(assert .def_1139)
